NAME /Users/henri/Research/solvers/instances/idol-instances/robust/collection/spp_dkp_Lefebvre_et_al_2026/shortest_path_3_3/uncertainty_sets/discrete_knapsack
ROWS
 N  OBJ
 L  primal_lower
COLUMNS
    MARKER    'MARKER'                 'INTORG'
    y[0,1]     OBJ        0
    y[0,1]     primal_lower -15.66
    y[0,2]     OBJ        0
    y[0,2]     primal_lower -8.7
    y[1,0]     OBJ        0
    y[1,0]     primal_lower -4.46
    y[1,2]     OBJ        0
    y[1,2]     primal_lower -1.22
    y[2,0]     OBJ        0
    y[2,0]     primal_lower -7.04
    y[2,1]     OBJ        0
    y[2,1]     primal_lower -7.49
    u[0,1]     OBJ        0
    u[0,1]     primal_lower 95
    u[0,2]     OBJ        0
    u[0,2]     primal_lower 88
    u[1,0]     OBJ        0
    u[1,0]     primal_lower 12
    u[1,2]     OBJ        0
    u[1,2]     primal_lower 76
    u[2,0]     OBJ        0
    u[2,0]     primal_lower 14
    u[2,1]     OBJ        0
    u[2,1]     primal_lower 58
    MARKER    'MARKER'                 'INTEND'
RHS
    RHS       primal_lower 95
BOUNDS
 LI BND       y[0,1]     0
 UI BND       y[0,1]     1
 LI BND       y[0,2]     0
 UI BND       y[0,2]     1
 LI BND       y[1,0]     0
 UI BND       y[1,0]     1
 LI BND       y[1,2]     0
 UI BND       y[1,2]     1
 LI BND       y[2,0]     0
 UI BND       y[2,0]     1
 LI BND       y[2,1]     0
 UI BND       y[2,1]     1
 LI BND       u[0,1]     0
 UI BND       u[0,1]     1
 LI BND       u[0,2]     0
 UI BND       u[0,2]     1
 LI BND       u[1,0]     0
 UI BND       u[1,0]     1
 LI BND       u[1,2]     0
 UI BND       u[1,2]     1
 LI BND       u[2,0]     0
 UI BND       u[2,0]     1
 LI BND       u[2,1]     0
 UI BND       u[2,1]     1
ENDATA
